[VALIDATOR STDOUT]
Checking plan: /home/jfan5/Safety-gen/runs/benchmark/optic/blocksworld_20260201_170641/blocksworld/optic_results/bw_ops3_n23_seed23001.plan
Plan executed successfully - checking goal
Plan valid
Final value: 112 

Successful plans:
Value: 112
 /home/jfan5/Safety-gen/runs/benchmark/optic/blocksworld_20260201_170641/blocksworld/optic_results/bw_ops3_n23_seed23001.plan 112
